2330 2246 2127 2046 1936 1862 1774 1713 1635 1552 1529 1481 1424 1382 1359 1302 1257 1217 1182 1147 1104 1089 1054 1040 995 955 943 920 892 873 859 845 830 821 812 800 789 784 770 766 760 751 750 744 744 731 726 724 708 705 703 701 699 697 691 687 682 682 679 678 677 675 674 671 669 668 668 665 663 663 663 663 663 663 663 663 663 663 663 663 663 663 663 663 663 663 663 663 663 663 663 663 663 663 663 663 663 663 663 663 663 663 663 663 663 663 663 663 663 663 663 663 663 663 663 663 663 663 663 663 663 663 663 663 663 663 663 663 663 663 663 663 663 663 663 663 663 663 663 663 663 663 663 663 663 663 663 663 663 663 663 663 663 663 663 663 663 663 663 663 663 663 663 663 663 663 663 663 663 663 663 663 663 663 663 663 663 663 663 663 663 663 663 663 663 663 663 663 663 663 663 663 663 663 663 663 663 663 663 663 663 663 663 663 663 663 663 663 663 663 663 663 663 663 663 663 663 663 663 663 663 663 663 663 663 663 663 663 663 663 663 663 663 663 663 663 663 663 663 663 663 663 663 663 663 663 663 663 663 663 663 663 663 663 663 663 663 663 663 663 663 663 663 663 663 663 663 663 663 663 663 663 663 663 663 663 663 663 663 663 663 663 663 663 663 663 663 663 663 663 663 663 663 663 663 663 663 663 663 663 663 663 663 663 663 663 663 663 663 663 663 663 663 663 663 663 663 663 663 663 663 663 663 663 663 663 663 663 663 663 663 663 663 663 663 663 663 663 663 663 663 663 663 663 663 663 663 663 663 663 663 663 663 663 663 663 663 663 663 663 663 663 663 663 663 663 663 663 663 663 663 663 663 663 663 663 663 663 663 663 663 663 663 663 663 663 663 663 663 663 663 663 663 663 663 663 663 663 663 663 663 663 663 663 663 663 663 663 663 663 663 663 663 663 663 663 663 663 663 663 663 663 663 663 663 663 663 663 663 663 663 663 663 663 663 663 663 663 663 663 663 663 663 663 663 663 663 663 663 663 663 663 663 663 663 663 663 663 663 663 663 663 663 663 663 663 663 663 663 663 663 663 663 663 663 663 663 663 663 663 663 663 663 663 663 663 663 663 663 663 663 663 663 663 663 663 663 663 663 663 663 663 663 663 663 663 663 663 663 663 663 663 663 663 663 663 663 663 663 663 663 663 663 663 663 663 663 663 663 663 663 663 663 663 663 663 663 663 663 663 663 663 663 663 663 663 663 663 663 663 663 663 663 663 663 663 663 663 663 663 663 663 663 663 663 663 663 663 663 663 663 663 663 663 663 663 663 663 663 663 663 663 663 663 663 663 663 663 663 663 663 663 663 663 663 663 663 663 663 663 663 663 663 663 663 663 663 663 663 663 663 663 663 663 663 663 663 663 663 663 663 663 663 663 663 663 663 663 663 663 663 663 663 663 663 663 663 663 663 663 663 663 663 663 663 663 663 663 663 663 663 663 663 663 663 663 663 663 663 663 663 663 663 663 663 663 663 663 663 663 663 663 663 663 663 663 663 663 663 663 663 663 663 663 663 663 663 663 663 663 663 663 663 663 663 663 663 663 663 663 663 663 663 663 663 663 663 663 663 663 663 663 663 663 663 663 663 663 663 663 663 663 663 663 663 663 663 663 663 663 663 663 663 663 663 663 663 663 663 663 663 663 663 663 663 663 663 663 663 663 663 663 663 663 663 663 663 663 663 663 663 663 663 663 663 663 663 663 663 663 663 663 663 663 663 663 663 663 663 663 663 663 663 663 663 663 663 663 663 663 663 663 663 663 663 663 663 663 663 663 663 663 663 663 663 663 663 663 663 663 663 663 663 663 663 663 663 663 663 663 663 663 663 663 663 663 663 663 663 663 663 663 663 663 663 663 663 663 663 663 663 663 663 663 663 663 663 663 663 663 663 663 663 663 663 663 663 663 663 663 663 663 663 663 663 663 663 663 663 663 663 663 663 663 663 663 663 663 663 663 663 663 663 663 663 663 663 663 663 663 663 663 663 663 663 663 663 663 663 663 663 663 663 663 663 663 663 663 663 663 663 663 663 663 663 663 663 663 663 663 663 663 663 663 663 663 663 663 663 663 663 663 663 663 663 663 663 663 663 663 663 663 663 663 663 663 663 663 663 663 663 663 663 663 663 663 663 663 663 663 663 663 663 663 663 663 663 663 663 663 663 663 663 663 663 663 663 663 663 663 663 663 663 663 663 663 663 663 663 663 663 663 663 663 663 663 663 663 663 663 663 663 663 663 663 663 663 663 663 663 663 663 663 663 663 663 663 663 663 663 663 663 663 663 663 663 663 663 663 663 663 663 663 663 663 663 663 663 663 663 663 663 663 663 663 663 663 663 663 663 663 663 663 663 663 663 663 663 663 663 663 663 663 663 663 663 663 663 663 663 663 663 663 663 663 663 663 663 663 663 663 663 663 663 663 663 663 663 663 663 663 663 663 663 663 663 663 663 663 663 663 663 663 663 663 663 663 663 663 663 663 663 663 663 663 663 663 663 663 663 663 663 663 663 663 663 663 663 663 663 663 663 663 663 663 663 663 663 663 663 663 663 663 663 663 663 663 663 663 663 663 663 663 663 663 663 663 663 663 663 663 663 663 663 663 663 663 663 663 663 663 663 663 663 663 663 663 663 663 663 663 663 663 663 663 663 663 663 663 663 663 663 663 663 663 663 663 663 663 663 663 663 663 663 663 663 663 663 663 663 663 663 663 663 663 663 663 663 663 663 663 663 663 663 663 663 663 663 663 663 663 663 663 663 663 663 663 663 663 663 663 663 663 663 663 663 663 663 663 663 663 663 663 663 663 663 663 663 663 663 663 663 663 663 663 663 663 663 663 663 663 663 663 663 663 663 663 663 663 663 663 663 663 663 663 663 663 663 663 663 663 663 663 663 663 663 663 663 663 663 663 663 663 663 663 663 663 663 663 663 663 663 663 663 663 663 663 663 663 663 663 663 663 663 663 663 663 663 663 663 663 663 663 663 663 663 663 663 663 663 663 663 663 663 663 663 663 663 663 663 663 663 663 663 663 663 663 663 663 663 663 663 663 663 663 663 663 663 663 663 663 663 663 663 663 663 663 663 663 663 663 663 663 663 663 663 663 663 663 663 663 663 663 663 663 663 663 663 663 663 663 663 663 663 663 663 663 663 663 663 663 663 663 663 663 663 663 663 663 663 663 663 663 663 663 663 663 663 663 663 663 663 663 663 663 663 663 663 663 663 663 663 663 663 663 663 663 663 663 663 663 663 663 663 663 663 663 663 663 663 663 663 663 663 663 663 663 663 663 663 663 663 663 663 663 663 663 663 663 663 663 663 663 663 663 663 663 663 663 663 663 663 663 663 663 663 663 663 663 663 663 663 663 663 663 663 663 663 663 663 663 663 663 663 663 663 663 663 663 663 663 663 663 663 663 663 663 663 663 663 663 663 663 663 663 663 663 663 663 663 663 663 663 663 663 663 663 663 663 663 663 663 663 663 663 663 663 663 663 663 663 663 663 663 663 663 663 663 663 663 663 663 663 663 663 663 663 663 663 663 663 663 663 663 663 663 663 663 663 663 663 663 663 663 663 663 663 663 663 663 663 663 663 663 663 663 663 663 663 663 663 663 663 663 663 663 663 663 663 663 663 663 663 663 663 663 663 663 663 663 663 663 663 663 663 663 663 663 663 663 663 663 663 663 663 663 663 663 663 663 663 663 663 663 663 663 663 663 663 663 663 663 663 663 663 663 663 663 663 663 663 663 663 663 663 663 663 663 663 663 663 663 663 663 663 663 663 663 663 663 663 663 663 663 663 663 663 663 663 663 663 663 663 663 663 663 663 663 663 663 663 663 663 663 663 663 663 663 663 663 663 663 663 663 663 663 663 663 663 663 663 663 663 663 663 663 663 663 663 663 663 663 663 663 663 663 663 663 663 663 663 663 663 663 663 663 663 663 663 663 663 663 663 663 663 663 663 663 663 663 663 663 663 663 663 663 663 663 663 663 663 663 663 663 663 663 663 663 663 663 663 663 663 663 663 663 663 663 663 663 663 663 663 663 663 663 663 663 663 663 663 663 663 663 663 663 663 663 663 663 663 663 663 663 663 663 663 663 663 663 663 663 663 663 663 663 663 663 663 663 663 663 663 663 663 663 663 663 663 663 663 663 663 663 663 663 663 663 663 663 663 663 663 663 663 663 663 663 663 663 663 663 663 663 663 663 663 663 663 663 663 663 663 663 663 663 663 663 663 663 663 663 663 663 663 663 663 663 663 663 663 663 663 663 663 663 663 663 663 663 663 663 663 663 663 663 663 663 663 663 663 663 663 663 663 663 663 663 663 663 663 663 663 663 663 663 663 663 663 663 663 663 663 663 663 663 663 663 663 663 663 663 663 663 663 663 663 663 663 663 663 663 663 663 663 663 663 663 663 663 663 663 663 663 663 663 663 663 663 663 663 663 663 663 663 663 663 663 663 663 663 663 663 663 663 663 663 663 663 663 
2695 2510 2380 2268 2167 2078 1992 1909 1833 1760 1698 1631 1566 1515 1467 1420 1373 1328 1285 1244 1204 1161 1122 1092 1065 1038 1007 972 942 915 895 877 861 845 833 820 808 798 790 784 776 768 762 753 750 744 741 736 729 724 718 707 702 701 698 696 691 685 681 681 681 679 676 675 674 671 669 668 668 666 665 663 663 663 663 663 663 663 663 663 663 663 663 663 663 663 663 663 663 663 663 663 663 663 663 663 663 663 663 663 663 663 663 663 663 663 663 663 663 663 663 663 663 663 663 663 663 663 663 663 663 663 663 663 663 663 663 663 663 663 663 663 663 663 663 663 663 663 663 663 663 663 663 663 663 663 663 663 663 663 663 663 663 663 663 663 663 663 663 663 663 663 663 663 663 663 663 663 663 663 663 663 663 663 663 663 663 663 663 663 663 663 663 663 663 663 663 663 663 663 663 663 663 663 663 663 663 663 663 663 663 663 663 663 663 663 663 663 663 663 663 663 663 663 663 663 663 663 663 663 663 663 663 663 663 663 663 663 663 663 663 663 663 663 663 663 663 663 663 663 663 663 663 663 663 663 663 663 663 663 663 663 663 663 663 663 663 663 663 663 663 663 663 663 663 663 663 663 663 663 663 663 663 663 663 663 663 663 663 663 663 663 663 663 663 663 663 663 663 663 663 663 663 663 663 663 663 663 663 663 663 663 663 663 663 663 663 663 663 663 663 663 663 663 663 663 663 663 663 663 663 663 663 663 663 663 663 663 663 663 663 663 663 663 663 663 663 663 663 663 663 663 663 663 663 663 663 663 663 663 663 663 663 663 663 663 663 663 663 663 663 663 663 663 663 663 663 663 663 663 663 663 663 663 663 663 663 663 663 663 663 663 663 663 663 663 663 663 663 663 663 663 663 663 663 663 663 663 663 663 663 663 663 663 663 663 663 663 663 663 663 663 663 663 663 663 663 663 663 663 663 663 663 663 663 663 663 663 663 663 663 663 663 663 663 663 663 663 663 663 663 663 663 663 663 663 663 663 663 663 663 663 663 663 663 663 663 663 663 663 663 663 663 663 663 663 663 663 663 663 663 663 663 663 663 663 663 663 663 663 663 663 663 663 663 663 663 663 663 663 663 663 663 663 663 663 663 663 663 663 663 663 663 663 663 663 663 663 663 663 663 663 663 663 663 663 663 663 663 663 663 663 663 663 663 663 663 663 663 663 663 663 663 663 663 663 663 663 663 663 663 663 663 663 663 663 663 663 663 663 663 663 663 663 663 663 663 663 663 663 663 663 663 663 663 663 663 663 663 663 663 663 663 663 663 663 663 663 663 663 663 663 663 663 663 663 663 663 663 663 663 663 663 663 663 663 663 663 663 663 663 663 663 663 663 663 663 663 663 663 663 663 663 663 663 663 663 663 663 663 663 663 663 663 663 663 663 663 663 663 663 663 663 663 663 663 663 663 663 663 663 663 663 663 663 663 663 663 663 663 663 663 663 663 663 663 663 663 663 663 663 663 663 663 663 663 663 663 663 663 663 663 663 663 663 663 663 663 663 663 663 663 663 663 663 663 663 663 663 663 663 663 663 663 663 663 663 663 663 663 663 663 663 663 663 663 663 663 663 663 663 663 663 663 663 663 663 663 663 663 663 663 663 663 663 663 663 663 663 663 663 663 663 663 663 663 663 663 663 663 663 663 663 663 663 663 663 663 663 663 663 663 663 663 663 663 663 663 663 663 663 663 663 663 663 663 663 663 663 663 663 663 663 663 663 663 663 663 663 663 663 663 663 663 663 663 663 663 663 663 663 663 663 663 663 663 663 663 663 663 663 663 663 663 663 663 663 663 663 663 663 663 663 663 663 663 663 663 663 663 663 663 663 663 663 663 663 663 663 663 663 663 663 663 663 663 663 663 663 663 663 663 663 663 663 663 663 663 663 663 663 663 663 663 663 663 663 663 663 663 663 663 663 663 663 663 663 663 663 663 663 663 663 663 663 663 663 663 663 663 663 663 663 663 663 663 663 663 663 663 663 663 663 663 663 663 663 663 663 663 663 663 663 663 663 663 663 663 663 663 663 663 663 663 663 663 663 663 663 663 663 663 663 663 663 663 663 663 663 663 663 663 663 663 663 663 663 663 663 663 663 663 663 663 663 663 663 663 663 663 663 663 663 663 663 663 663 663 663 663 663 663 663 663 663 663 663 663 663 663 663 663 663 663 663 663 663 663 663 663 663 663 663 663 663 663 663 663 663 663 663 663 663 663 663 663 663 663 663 663 663 663 663 663 663 663 663 663 663 663 663 663 663 663 663 663 663 663 663 663 663 663 663 663 663 663 663 663 663 663 663 663 663 663 663 663 663 663 663 663 663 663 663 663 663 663 663 663 663 663 663 663 663 663 663 663 663 663 663 663 663 663 663 663 663 663 663 663 663 663 663 663 663 663 663 663 663 663 663 663 663 663 663 663 663 663 663 663 663 663 663 663 663 663 663 663 663 663 663 663 663 663 663 663 663 663 663 663 663 663 663 663 663 663 663 663 663 663 663 663 663 663 663 663 663 663 663 663 663 663 663 663 663 663 663 663 663 663 663 663 663 663 663 663 663 663 663 663 663 663 663 663 663 663 663 663 663 663 663 663 663 663 663 663 663 663 663 663 663 663 663 663 663 663 663 663 663 663 663 663 663 663 663 663 663 663 663 663 663 663 663 663 663 663 663 663 663 663 663 663 663 663 663 663 663 663 663 663 663 663 663 663 663 663 663 663 663 663 663 663 663 663 663 663 663 663 663 663 663 663 663 663 663 663 663 663 663 663 663 663 663 663 663 663 663 663 663 663 663 663 663 663 663 663 663 663 663 663 663 663 663 663 663 663 663 663 663 663 663 663 663 663 663 663 663 663 663 663 663 663 663 663 663 663 663 663 663 663 663 663 663 663 663 663 663 663 663 663 663 663 663 663 663 663 663 663 663 663 663 663 663 663 663 663 663 663 663 663 663 663 663 663 663 663 663 663 663 663 663 663 663 663 663 663 663 663 663 663 663 663 663 663 663 663 663 663 663 663 663 663 663 663 663 663 663 663 663 663 663 663 663 663 663 663 663 663 663 663 663 663 663 663 663 663 663 663 663 663 663 663 663 663 663 663 663 663 663 663 663 663 663 663 663 663 663 663 663 663 663 663 663 663 663 663 663 663 663 663 663 663 663 663 663 663 663 663 663 663 663 663 663 663 663 663 663 663 663 663 663 663 663 663 663 663 663 663 663 663 663 663 663 663 663 663 663 663 663 663 663 663 663 663 663 663 663 663 663 663 663 663 663 663 663 663 663 663 663 663 663 663 663 663 663 663 663 663 663 663 663 663 663 663 663 663 663 663 663 663 663 663 663 663 663 663 663 663 663 663 663 663 663 663 663 663 663 663 663 663 663 663 663 663 663 663 663 663 663 663 663 663 663 663 663 663 663 663 663 663 663 663 663 663 663 663 663 663 663 663 663 663 663 663 663 663 663 663 663 663 663 663 663 663 663 663 663 663 663 663 663 663 663 663 663 663 663 663 663 663 663 663 663 663 663 663 663 663 663 663 663 663 663 663 663 663 663 663 663 663 663 663 663 663 663 663 663 663 663 663 663 663 663 663 663 663 663 663 663 663 663 663 663 663 663 663 663 663 663 663 663 663 663 663 663 663 663 663 663 663 663 663 663 663 663 663 663 663 663 663 663 663 663 663 663 663 663 663 663 663 663 663 663 663 663 663 663 663 663 663 663 663 663 663 663 663 663 663 663 663 663 663 663 663 663 663 663 663 663 663 663 663 663 663 663 663 663 663 663 663 663 663 663 663 663 663 663 663 663 663 663 663 663 663 663 663 663 663 663 663 663 663 663 663 663 663 663 663 663 663 663 663 663 663 663 663 663 663 663 663 663 663 663 663 663 663 663 663 663 663 663 663 663 663 663 663 663 663 663 663 663 663 663 663 663 663 663 663 663 663 663 663 663 663 663 663 663 663 663 663 663 663 663 663 663 663 663 663 663 663 663 663 663 663 663 663 663 663 663 663 663 663 663 663 663 663 663 663 663 663 663 663 663 663 663 663 663 663 663 663 663 663 663 663 663 663 663 663 663 663 663 663 663 663 663 663 663 663 663 663 663 663 663 663 663 663 663 663 663 663 663 663 663 663 663 663 663 663 663 663 663 663 663 663 663 663 663 663 663 663 663 663 663 663 663 663 663 663 663 663 663 663 663 663 663 663 663 663 663 663 663 663 663 663 663 663 663 663 663 663 663 663 663 663 663 663 663 663 663 663 663 663 663 663 663 663 663 663 663 663 663 663 663 663 663 663 663 663 663 663 663 663 663 663 663 663 663 663 663 663 663 663 663 663 663 663 663 663 663 663 663 663 663 663 663 663 663 663 663 663 663 663 663 663 663 663 663 663 663 663 663 663 663 663 663 663 663 663 663 663 663 663 663 663 663 663 663 663 663 663 663 663 663 663 663 663 663 663 663 663 663 663 663 663 663 663 663 663 663 663 663 663 